(declare-fun symvar192418503 () Int)
(declare-fun symvar1668286144 () Int)
(declare-fun symvar669239264 () Int)
(declare-fun symvar156812704 () Int)
(assert ( and ( and ( and ( and ( and ( and ( and ( and ( and ( and ( and ( and ( and true ( > symvar192418503 50)) ( not ( and ( > ( + symvar192418503 2) 100) ( < ( + symvar192418503 2) 180)))) ( not ( and ( > ( + symvar192418503 2) 60) ( < ( + symvar192418503 2) 70)))) ( > ( + symvar192418503 2) 65)) ( not ( and ( < ( + symvar192418503 1) 50) ( > ( + symvar192418503 1) 44)))) ( > symvar1668286144 50)) ( and ( > ( + symvar1668286144 2) 100) ( < ( + symvar1668286144 2) 180))) ( not ( and ( < ( + symvar1668286144 2) 50) ( > ( + symvar1668286144 2) 44)))) ( > symvar669239264 50)) ( and ( > ( + symvar669239264 2) 100) ( < ( + symvar669239264 2) 180))) ( not ( and ( < ( + symvar669239264 2) 50) ( > ( + symvar669239264 2) 44)))) ( > symvar156812704 50)) ( not ( and ( > ( + symvar156812704 2) 100) ( < ( + symvar156812704 2) 180)))))
(check-sat)
(get-model)
(exit)
